49000769565926492895013,14,1,2,015,11,1,2,013,8,1,2,04,8,1,2,013,6,1,2,06,1,1,2,09,6,1,2,06,10,1,2,04,7,1,2,02,14,1,2,015,15,1,2,05,3,1,2,05,8,1,2,08,9,1,2,01,11,1,2,011,1,1,2,015,4,1,2,01,5,1,2,05,6,1,2,013,9,1,2,01,15,1,2,07,10,1,2,014,8,1,2,06,8,1,2,04,7,1,2,014,13,1,2,02,5,1,2,03,1,1,2,012,10,1,2,05,6,1,2,010,4,1,2,06,9,1,2,02,2,1,2,06,9,1,2,03,12,1,2,04,2,1,2,03,2,1,2,04,1,1,2,03,1,1,2,03,15,1,2,04,9,1,2,06,11,1,2,04,10,1,2,012,11,1,2,06,7,1,2,01,12,1,2,013,11,1,2,02,6,1,2,014,3,1,2,013,7,1,2,0